p cnf 0 0
c K couleurs
16 19 22 25 28 31 34 37 40 43 46 49 52 55 58 61 0
17 20 23 26 29 32 35 38 41 44 47 50 53 56 59 62 0
18 21 24 27 30 33 36 39 42 45 48 51 54 57 60 63 0
1 0
-17 0
-18 0
-21 0
c 1 color par vertex et au plus 1
16 17 18 0
-17 -16 0
-18 -16 0
-18 -17 0
19 20 21 0
-20 -19 0
-21 -19 0
-21 -20 0
22 23 24 0
-23 -22 0
-24 -22 0
-24 -23 0
25 26 27 0
-26 -25 0
-27 -25 0
-27 -26 0
28 29 30 0
-29 -28 0
-30 -28 0
-30 -29 0
31 32 33 0
-32 -31 0
-33 -31 0
-33 -32 0
34 35 36 0
-35 -34 0
-36 -34 0
-36 -35 0
37 38 39 0
-38 -37 0
-39 -37 0
-39 -38 0
40 41 42 0
-41 -40 0
-42 -40 0
-42 -41 0
43 44 45 0
-44 -43 0
-45 -43 0
-45 -44 0
46 47 48 0
-47 -46 0
-48 -46 0
-48 -47 0
49 50 51 0
-50 -49 0
-51 -49 0
-51 -50 0
52 53 54 0
-53 -52 0
-54 -52 0
-54 -53 0
55 56 57 0
-56 -55 0
-57 -55 0
-57 -56 0
58 59 60 0
-59 -58 0
-60 -58 0
-60 -59 0
61 62 63 0
-62 -61 0
-63 -61 0
-63 -62 0
c gc coresp to G
-16 -20 64 0
-16 -20 -65 1 0
-16 -20 65 -1 0
-16 -21 66 0
-16 -21 -67 1 0
-16 -21 67 -1 0
-17 -19 64 0
-17 -19 -65 1 0
-17 -19 65 -1 0
-17 -21 68 0
-17 -21 -69 1 0
-17 -21 69 -1 0
-18 -19 66 0
-18 -19 -67 1 0
-18 -19 67 -1 0
-18 -20 68 0
-18 -20 -69 1 0
-18 -20 69 -1 0
-19 -23 64 0
-19 -23 -65 2 0
-19 -23 65 -2 0
-19 -24 66 0
-19 -24 -67 2 0
-19 -24 67 -2 0
-20 -22 64 0
-20 -22 -65 2 0
-20 -22 65 -2 0
-20 -24 68 0
-20 -24 -69 2 0
-20 -24 69 -2 0
-21 -22 66 0
-21 -22 -67 2 0
-21 -22 67 -2 0
-21 -23 68 0
-21 -23 -69 2 0
-21 -23 69 -2 0
-22 -26 64 0
-22 -26 -65 3 0
-22 -26 65 -3 0
-22 -27 66 0
-22 -27 -67 3 0
-22 -27 67 -3 0
-23 -25 64 0
-23 -25 -65 3 0
-23 -25 65 -3 0
-23 -27 68 0
-23 -27 -69 3 0
-23 -27 69 -3 0
-24 -25 66 0
-24 -25 -67 3 0
-24 -25 67 -3 0
-24 -26 68 0
-24 -26 -69 3 0
-24 -26 69 -3 0
-25 -29 64 0
-25 -29 -65 4 0
-25 -29 65 -4 0
-25 -30 66 0
-25 -30 -67 4 0
-25 -30 67 -4 0
-26 -28 64 0
-26 -28 -65 4 0
-26 -28 65 -4 0
-26 -30 68 0
-26 -30 -69 4 0
-26 -30 69 -4 0
-27 -28 66 0
-27 -28 -67 4 0
-27 -28 67 -4 0
-27 -29 68 0
-27 -29 -69 4 0
-27 -29 69 -4 0
-28 -32 64 0
-28 -32 -65 5 0
-28 -32 65 -5 0
-28 -33 66 0
-28 -33 -67 5 0
-28 -33 67 -5 0
-29 -31 64 0
-29 -31 -65 5 0
-29 -31 65 -5 0
-29 -33 68 0
-29 -33 -69 5 0
-29 -33 69 -5 0
-30 -31 66 0
-30 -31 -67 5 0
-30 -31 67 -5 0
-30 -32 68 0
-30 -32 -69 5 0
-30 -32 69 -5 0
-31 -35 64 0
-31 -35 -65 6 0
-31 -35 65 -6 0
-31 -36 66 0
-31 -36 -67 6 0
-31 -36 67 -6 0
-32 -34 64 0
-32 -34 -65 6 0
-32 -34 65 -6 0
-32 -36 68 0
-32 -36 -69 6 0
-32 -36 69 -6 0
-33 -34 66 0
-33 -34 -67 6 0
-33 -34 67 -6 0
-33 -35 68 0
-33 -35 -69 6 0
-33 -35 69 -6 0
-34 -38 64 0
-34 -38 -65 7 0
-34 -38 65 -7 0
-34 -39 66 0
-34 -39 -67 7 0
-34 -39 67 -7 0
-35 -37 64 0
-35 -37 -65 7 0
-35 -37 65 -7 0
-35 -39 68 0
-35 -39 -69 7 0
-35 -39 69 -7 0
-36 -37 66 0
-36 -37 -67 7 0
-36 -37 67 -7 0
-36 -38 68 0
-36 -38 -69 7 0
-36 -38 69 -7 0
-37 -41 64 0
-37 -41 -65 8 0
-37 -41 65 -8 0
-37 -42 66 0
-37 -42 -67 8 0
-37 -42 67 -8 0
-38 -40 64 0
-38 -40 -65 8 0
-38 -40 65 -8 0
-38 -42 68 0
-38 -42 -69 8 0
-38 -42 69 -8 0
-39 -40 66 0
-39 -40 -67 8 0
-39 -40 67 -8 0
-39 -41 68 0
-39 -41 -69 8 0
-39 -41 69 -8 0
-40 -44 64 0
-40 -44 -65 9 0
-40 -44 65 -9 0
-40 -45 66 0
-40 -45 -67 9 0
-40 -45 67 -9 0
-41 -43 64 0
-41 -43 -65 9 0
-41 -43 65 -9 0
-41 -45 68 0
-41 -45 -69 9 0
-41 -45 69 -9 0
-42 -43 66 0
-42 -43 -67 9 0
-42 -43 67 -9 0
-42 -44 68 0
-42 -44 -69 9 0
-42 -44 69 -9 0
-43 -47 64 0
-43 -47 -65 10 0
-43 -47 65 -10 0
-43 -48 66 0
-43 -48 -67 10 0
-43 -48 67 -10 0
-44 -46 64 0
-44 -46 -65 10 0
-44 -46 65 -10 0
-44 -48 68 0
-44 -48 -69 10 0
-44 -48 69 -10 0
-45 -46 66 0
-45 -46 -67 10 0
-45 -46 67 -10 0
-45 -47 68 0
-45 -47 -69 10 0
-45 -47 69 -10 0
-46 -50 64 0
-46 -50 -65 11 0
-46 -50 65 -11 0
-46 -51 66 0
-46 -51 -67 11 0
-46 -51 67 -11 0
-47 -49 64 0
-47 -49 -65 11 0
-47 -49 65 -11 0
-47 -51 68 0
-47 -51 -69 11 0
-47 -51 69 -11 0
-48 -49 66 0
-48 -49 -67 11 0
-48 -49 67 -11 0
-48 -50 68 0
-48 -50 -69 11 0
-48 -50 69 -11 0
-49 -53 64 0
-49 -53 -65 12 0
-49 -53 65 -12 0
-49 -54 66 0
-49 -54 -67 12 0
-49 -54 67 -12 0
-50 -52 64 0
-50 -52 -65 12 0
-50 -52 65 -12 0
-50 -54 68 0
-50 -54 -69 12 0
-50 -54 69 -12 0
-51 -52 66 0
-51 -52 -67 12 0
-51 -52 67 -12 0
-51 -53 68 0
-51 -53 -69 12 0
-51 -53 69 -12 0
-52 -56 64 0
-52 -56 -65 13 0
-52 -56 65 -13 0
-52 -57 66 0
-52 -57 -67 13 0
-52 -57 67 -13 0
-53 -55 64 0
-53 -55 -65 13 0
-53 -55 65 -13 0
-53 -57 68 0
-53 -57 -69 13 0
-53 -57 69 -13 0
-54 -55 66 0
-54 -55 -67 13 0
-54 -55 67 -13 0
-54 -56 68 0
-54 -56 -69 13 0
-54 -56 69 -13 0
-55 -59 64 0
-55 -59 -65 14 0
-55 -59 65 -14 0
-55 -60 66 0
-55 -60 -67 14 0
-55 -60 67 -14 0
-56 -58 64 0
-56 -58 -65 14 0
-56 -58 65 -14 0
-56 -60 68 0
-56 -60 -69 14 0
-56 -60 69 -14 0
-57 -58 66 0
-57 -58 -67 14 0
-57 -58 67 -14 0
-57 -59 68 0
-57 -59 -69 14 0
-57 -59 69 -14 0
-58 -62 64 0
-58 -62 -65 15 0
-58 -62 65 -15 0
-58 -63 66 0
-58 -63 -67 15 0
-58 -63 67 -15 0
-59 -61 64 0
-59 -61 -65 15 0
-59 -61 65 -15 0
-59 -63 68 0
-59 -63 -69 15 0
-59 -63 69 -15 0
-60 -61 66 0
-60 -61 -67 15 0
-60 -61 67 -15 0
-60 -62 68 0
-60 -62 -69 15 0
-60 -62 69 -15 0
c X
-71 16 0
-70 16 0
-71 20 0
-70 20 0
-71 1 0
-70 -1 0
71 -16 -20 -1 0
70 -16 -20 1 0
-73 16 0
-72 16 0
-73 21 0
-72 21 0
-73 1 0
-72 -1 0
73 -16 -21 -1 0
72 -16 -21 1 0
-75 17 0
-74 17 0
-75 19 0
-74 19 0
-75 1 0
-74 -1 0
75 -17 -19 -1 0
74 -17 -19 1 0
-77 17 0
-76 17 0
-77 21 0
-76 21 0
-77 1 0
-76 -1 0
77 -17 -21 -1 0
76 -17 -21 1 0
-79 18 0
-78 18 0
-79 19 0
-78 19 0
-79 1 0
-78 -1 0
79 -18 -19 -1 0
78 -18 -19 1 0
-81 18 0
-80 18 0
-81 20 0
-80 20 0
-81 1 0
-80 -1 0
81 -18 -20 -1 0
80 -18 -20 1 0
-83 19 0
-82 19 0
-83 23 0
-82 23 0
-83 2 0
-82 -2 0
83 -19 -23 -2 0
82 -19 -23 2 0
-85 19 0
-84 19 0
-85 24 0
-84 24 0
-85 2 0
-84 -2 0
85 -19 -24 -2 0
84 -19 -24 2 0
-87 20 0
-86 20 0
-87 22 0
-86 22 0
-87 2 0
-86 -2 0
87 -20 -22 -2 0
86 -20 -22 2 0
-89 20 0
-88 20 0
-89 24 0
-88 24 0
-89 2 0
-88 -2 0
89 -20 -24 -2 0
88 -20 -24 2 0
-91 21 0
-90 21 0
-91 22 0
-90 22 0
-91 2 0
-90 -2 0
91 -21 -22 -2 0
90 -21 -22 2 0
-93 21 0
-92 21 0
-93 23 0
-92 23 0
-93 2 0
-92 -2 0
93 -21 -23 -2 0
92 -21 -23 2 0
-95 22 0
-94 22 0
-95 26 0
-94 26 0
-95 3 0
-94 -3 0
95 -22 -26 -3 0
94 -22 -26 3 0
-97 22 0
-96 22 0
-97 27 0
-96 27 0
-97 3 0
-96 -3 0
97 -22 -27 -3 0
96 -22 -27 3 0
-99 23 0
-98 23 0
-99 25 0
-98 25 0
-99 3 0
-98 -3 0
99 -23 -25 -3 0
98 -23 -25 3 0
-101 23 0
-100 23 0
-101 27 0
-100 27 0
-101 3 0
-100 -3 0
101 -23 -27 -3 0
100 -23 -27 3 0
-103 24 0
-102 24 0
-103 25 0
-102 25 0
-103 3 0
-102 -3 0
103 -24 -25 -3 0
102 -24 -25 3 0
-105 24 0
-104 24 0
-105 26 0
-104 26 0
-105 3 0
-104 -3 0
105 -24 -26 -3 0
104 -24 -26 3 0
-107 25 0
-106 25 0
-107 29 0
-106 29 0
-107 4 0
-106 -4 0
107 -25 -29 -4 0
106 -25 -29 4 0
-109 25 0
-108 25 0
-109 30 0
-108 30 0
-109 4 0
-108 -4 0
109 -25 -30 -4 0
108 -25 -30 4 0
-111 26 0
-110 26 0
-111 28 0
-110 28 0
-111 4 0
-110 -4 0
111 -26 -28 -4 0
110 -26 -28 4 0
-113 26 0
-112 26 0
-113 30 0
-112 30 0
-113 4 0
-112 -4 0
113 -26 -30 -4 0
112 -26 -30 4 0
-115 27 0
-114 27 0
-115 28 0
-114 28 0
-115 4 0
-114 -4 0
115 -27 -28 -4 0
114 -27 -28 4 0
-117 27 0
-116 27 0
-117 29 0
-116 29 0
-117 4 0
-116 -4 0
117 -27 -29 -4 0
116 -27 -29 4 0
-119 28 0
-118 28 0
-119 32 0
-118 32 0
-119 5 0
-118 -5 0
119 -28 -32 -5 0
118 -28 -32 5 0
-121 28 0
-120 28 0
-121 33 0
-120 33 0
-121 5 0
-120 -5 0
121 -28 -33 -5 0
120 -28 -33 5 0
-123 29 0
-122 29 0
-123 31 0
-122 31 0
-123 5 0
-122 -5 0
123 -29 -31 -5 0
122 -29 -31 5 0
-125 29 0
-124 29 0
-125 33 0
-124 33 0
-125 5 0
-124 -5 0
125 -29 -33 -5 0
124 -29 -33 5 0
-127 30 0
-126 30 0
-127 31 0
-126 31 0
-127 5 0
-126 -5 0
127 -30 -31 -5 0
126 -30 -31 5 0
-129 30 0
-128 30 0
-129 32 0
-128 32 0
-129 5 0
-128 -5 0
129 -30 -32 -5 0
128 -30 -32 5 0
-131 31 0
-130 31 0
-131 35 0
-130 35 0
-131 6 0
-130 -6 0
131 -31 -35 -6 0
130 -31 -35 6 0
-133 31 0
-132 31 0
-133 36 0
-132 36 0
-133 6 0
-132 -6 0
133 -31 -36 -6 0
132 -31 -36 6 0
-135 32 0
-134 32 0
-135 34 0
-134 34 0
-135 6 0
-134 -6 0
135 -32 -34 -6 0
134 -32 -34 6 0
-137 32 0
-136 32 0
-137 36 0
-136 36 0
-137 6 0
-136 -6 0
137 -32 -36 -6 0
136 -32 -36 6 0
-139 33 0
-138 33 0
-139 34 0
-138 34 0
-139 6 0
-138 -6 0
139 -33 -34 -6 0
138 -33 -34 6 0
-141 33 0
-140 33 0
-141 35 0
-140 35 0
-141 6 0
-140 -6 0
141 -33 -35 -6 0
140 -33 -35 6 0
-143 34 0
-142 34 0
-143 38 0
-142 38 0
-143 7 0
-142 -7 0
143 -34 -38 -7 0
142 -34 -38 7 0
-145 34 0
-144 34 0
-145 39 0
-144 39 0
-145 7 0
-144 -7 0
145 -34 -39 -7 0
144 -34 -39 7 0
-147 35 0
-146 35 0
-147 37 0
-146 37 0
-147 7 0
-146 -7 0
147 -35 -37 -7 0
146 -35 -37 7 0
-149 35 0
-148 35 0
-149 39 0
-148 39 0
-149 7 0
-148 -7 0
149 -35 -39 -7 0
148 -35 -39 7 0
-151 36 0
-150 36 0
-151 37 0
-150 37 0
-151 7 0
-150 -7 0
151 -36 -37 -7 0
150 -36 -37 7 0
-153 36 0
-152 36 0
-153 38 0
-152 38 0
-153 7 0
-152 -7 0
153 -36 -38 -7 0
152 -36 -38 7 0
-155 37 0
-154 37 0
-155 41 0
-154 41 0
-155 8 0
-154 -8 0
155 -37 -41 -8 0
154 -37 -41 8 0
-157 37 0
-156 37 0
-157 42 0
-156 42 0
-157 8 0
-156 -8 0
157 -37 -42 -8 0
156 -37 -42 8 0
-159 38 0
-158 38 0
-159 40 0
-158 40 0
-159 8 0
-158 -8 0
159 -38 -40 -8 0
158 -38 -40 8 0
-161 38 0
-160 38 0
-161 42 0
-160 42 0
-161 8 0
-160 -8 0
161 -38 -42 -8 0
160 -38 -42 8 0
-163 39 0
-162 39 0
-163 40 0
-162 40 0
-163 8 0
-162 -8 0
163 -39 -40 -8 0
162 -39 -40 8 0
-165 39 0
-164 39 0
-165 41 0
-164 41 0
-165 8 0
-164 -8 0
165 -39 -41 -8 0
164 -39 -41 8 0
-167 40 0
-166 40 0
-167 44 0
-166 44 0
-167 9 0
-166 -9 0
167 -40 -44 -9 0
166 -40 -44 9 0
-169 40 0
-168 40 0
-169 45 0
-168 45 0
-169 9 0
-168 -9 0
169 -40 -45 -9 0
168 -40 -45 9 0
-171 41 0
-170 41 0
-171 43 0
-170 43 0
-171 9 0
-170 -9 0
171 -41 -43 -9 0
170 -41 -43 9 0
-173 41 0
-172 41 0
-173 45 0
-172 45 0
-173 9 0
-172 -9 0
173 -41 -45 -9 0
172 -41 -45 9 0
-175 42 0
-174 42 0
-175 43 0
-174 43 0
-175 9 0
-174 -9 0
175 -42 -43 -9 0
174 -42 -43 9 0
-177 42 0
-176 42 0
-177 44 0
-176 44 0
-177 9 0
-176 -9 0
177 -42 -44 -9 0
176 -42 -44 9 0
-179 43 0
-178 43 0
-179 47 0
-178 47 0
-179 10 0
-178 -10 0
179 -43 -47 -10 0
178 -43 -47 10 0
-181 43 0
-180 43 0
-181 48 0
-180 48 0
-181 10 0
-180 -10 0
181 -43 -48 -10 0
180 -43 -48 10 0
-183 44 0
-182 44 0
-183 46 0
-182 46 0
-183 10 0
-182 -10 0
183 -44 -46 -10 0
182 -44 -46 10 0
-185 44 0
-184 44 0
-185 48 0
-184 48 0
-185 10 0
-184 -10 0
185 -44 -48 -10 0
184 -44 -48 10 0
-187 45 0
-186 45 0
-187 46 0
-186 46 0
-187 10 0
-186 -10 0
187 -45 -46 -10 0
186 -45 -46 10 0
-189 45 0
-188 45 0
-189 47 0
-188 47 0
-189 10 0
-188 -10 0
189 -45 -47 -10 0
188 -45 -47 10 0
-191 46 0
-190 46 0
-191 50 0
-190 50 0
-191 11 0
-190 -11 0
191 -46 -50 -11 0
190 -46 -50 11 0
-193 46 0
-192 46 0
-193 51 0
-192 51 0
-193 11 0
-192 -11 0
193 -46 -51 -11 0
192 -46 -51 11 0
-195 47 0
-194 47 0
-195 49 0
-194 49 0
-195 11 0
-194 -11 0
195 -47 -49 -11 0
194 -47 -49 11 0
-197 47 0
-196 47 0
-197 51 0
-196 51 0
-197 11 0
-196 -11 0
197 -47 -51 -11 0
196 -47 -51 11 0
-199 48 0
-198 48 0
-199 49 0
-198 49 0
-199 11 0
-198 -11 0
199 -48 -49 -11 0
198 -48 -49 11 0
-201 48 0
-200 48 0
-201 50 0
-200 50 0
-201 11 0
-200 -11 0
201 -48 -50 -11 0
200 -48 -50 11 0
-203 49 0
-202 49 0
-203 53 0
-202 53 0
-203 12 0
-202 -12 0
203 -49 -53 -12 0
202 -49 -53 12 0
-205 49 0
-204 49 0
-205 54 0
-204 54 0
-205 12 0
-204 -12 0
205 -49 -54 -12 0
204 -49 -54 12 0
-207 50 0
-206 50 0
-207 52 0
-206 52 0
-207 12 0
-206 -12 0
207 -50 -52 -12 0
206 -50 -52 12 0
-209 50 0
-208 50 0
-209 54 0
-208 54 0
-209 12 0
-208 -12 0
209 -50 -54 -12 0
208 -50 -54 12 0
-211 51 0
-210 51 0
-211 52 0
-210 52 0
-211 12 0
-210 -12 0
211 -51 -52 -12 0
210 -51 -52 12 0
-213 51 0
-212 51 0
-213 53 0
-212 53 0
-213 12 0
-212 -12 0
213 -51 -53 -12 0
212 -51 -53 12 0
-215 52 0
-214 52 0
-215 56 0
-214 56 0
-215 13 0
-214 -13 0
215 -52 -56 -13 0
214 -52 -56 13 0
-217 52 0
-216 52 0
-217 57 0
-216 57 0
-217 13 0
-216 -13 0
217 -52 -57 -13 0
216 -52 -57 13 0
-219 53 0
-218 53 0
-219 55 0
-218 55 0
-219 13 0
-218 -13 0
219 -53 -55 -13 0
218 -53 -55 13 0
-221 53 0
-220 53 0
-221 57 0
-220 57 0
-221 13 0
-220 -13 0
221 -53 -57 -13 0
220 -53 -57 13 0
-223 54 0
-222 54 0
-223 55 0
-222 55 0
-223 13 0
-222 -13 0
223 -54 -55 -13 0
222 -54 -55 13 0
-225 54 0
-224 54 0
-225 56 0
-224 56 0
-225 13 0
-224 -13 0
225 -54 -56 -13 0
224 -54 -56 13 0
-227 55 0
-226 55 0
-227 59 0
-226 59 0
-227 14 0
-226 -14 0
227 -55 -59 -14 0
226 -55 -59 14 0
-229 55 0
-228 55 0
-229 60 0
-228 60 0
-229 14 0
-228 -14 0
229 -55 -60 -14 0
228 -55 -60 14 0
-231 56 0
-230 56 0
-231 58 0
-230 58 0
-231 14 0
-230 -14 0
231 -56 -58 -14 0
230 -56 -58 14 0
-233 56 0
-232 56 0
-233 60 0
-232 60 0
-233 14 0
-232 -14 0
233 -56 -60 -14 0
232 -56 -60 14 0
-235 57 0
-234 57 0
-235 58 0
-234 58 0
-235 14 0
-234 -14 0
235 -57 -58 -14 0
234 -57 -58 14 0
-237 57 0
-236 57 0
-237 59 0
-236 59 0
-237 14 0
-236 -14 0
237 -57 -59 -14 0
236 -57 -59 14 0
-239 58 0
-238 58 0
-239 62 0
-238 62 0
-239 15 0
-238 -15 0
239 -58 -62 -15 0
238 -58 -62 15 0
-241 58 0
-240 58 0
-241 63 0
-240 63 0
-241 15 0
-240 -15 0
241 -58 -63 -15 0
240 -58 -63 15 0
-243 59 0
-242 59 0
-243 61 0
-242 61 0
-243 15 0
-242 -15 0
243 -59 -61 -15 0
242 -59 -61 15 0
-245 59 0
-244 59 0
-245 63 0
-244 63 0
-245 15 0
-244 -15 0
245 -59 -63 -15 0
244 -59 -63 15 0
-247 60 0
-246 60 0
-247 61 0
-246 61 0
-247 15 0
-246 -15 0
247 -60 -61 -15 0
246 -60 -61 15 0
-249 60 0
-248 60 0
-249 62 0
-248 62 0
-249 15 0
-248 -15 0
249 -60 -62 -15 0
248 -60 -62 15 0
c x suite
-64 -65 71 75 83 87 95 99 107 111 119 123 131 135 143 147 155 159 167 171 179 183 191 195 203 207 215 219 227 231 239 243 0
-66 -67 73 79 85 91 97 103 109 115 121 127 133 139 145 151 157 163 169 175 181 187 193 199 205 211 217 223 229 235 241 247 0
-68 -69 77 81 89 93 101 105 113 117 125 129 137 141 149 153 161 165 173 177 185 189 197 201 209 213 221 225 233 237 245 249 0
-64 65 70 74 82 86 94 98 106 110 118 122 130 134 142 146 154 158 166 170 178 182 190 194 202 206 214 218 226 230 238 242 0
-66 67 72 78 84 90 96 102 108 114 120 126 132 138 144 150 156 162 168 174 180 186 192 198 204 210 216 222 228 234 240 246 0
-68 69 76 80 88 92 100 104 112 116 124 128 136 140 148 152 160 164 172 176 184 188 196 200 208 212 220 224 232 236 244 248 0
c proper colo
-16 -19 0
-17 -20 0
-18 -21 0
-19 -22 0
-20 -23 0
-21 -24 0
-22 -25 0
-23 -26 0
-24 -27 0
-25 -28 0
-26 -29 0
-27 -30 0
-28 -31 0
-29 -32 0
-30 -33 0
-31 -34 0
-32 -35 0
-33 -36 0
-34 -37 0
-35 -38 0
-36 -39 0
-37 -40 0
-38 -41 0
-39 -42 0
-40 -43 0
-41 -44 0
-42 -45 0
-43 -46 0
-44 -47 0
-45 -48 0
-46 -49 0
-47 -50 0
-48 -51 0
-49 -52 0
-50 -53 0
-51 -54 0
-52 -55 0
-53 -56 0
-54 -57 0
-55 -58 0
-56 -59 0
-57 -60 0
-58 -61 0
-59 -62 0
-60 -63 0
64 250 0
66 251 0
68 252 0
-250 66 0
-250 68 0
-250 67 69 0
-250 -67 -69 0
250 -66 -68 67 -69 0
250 -66 -68 -67 69 0
-251 64 0
-251 68 0
-251 65 69 0
-251 -65 -69 0
251 -64 -68 65 -69 0
251 -64 -68 -65 69 0
-252 64 0
-252 66 0
-252 65 67 0
-252 -65 -67 0
252 -64 -66 65 -67 0
252 -64 -66 -65 67 0
